74345009524448367705013,11,1,2,02,1,1,2,06,4,1,2,014,13,1,2,02,11,1,2,06,10,1,2,012,10,1,2,015,6,1,2,012,13,1,2,01,15,1,2,013,1,1,2,014,9,1,2,015,13,1,2,01,7,1,2,011,3,1,2,05,11,1,2,011,1,1,2,06,8,1,2,015,11,1,2,05,2,1,2,08,6,1,2,01,5,1,2,010,10,1,2,01,1,1,2,013,14,1,2,06,6,1,2,07,6,1,2,02,13,1,2,07,2,1,2,010,13,1,2,015,6,1,2,07,6,1,2,09,5,1,2,05,12,1,2,010,14,1,2,09,1,1,2,010,12,1,2,014,3,1,2,06,13,1,2,02,5,1,2,03,8,1,2,04,13,1,2,012,8,1,2,014,14,1,2,05,5,1,2,07,11,1,2,02,8,1,2,015,11,1,2,015,10,1,2,08,1,1,2,0